c defined variables: 13 25 29 33 37 41 45 49 53 57 61 65 69 73 77 81 85 89 93 97 101 105 109 113 126 136 140 144 148 152 156 160 164 168 172 176 180 184 188 192 196 200 204 208 212 217 218 222 227 228 232 237 238 243 247 255 256 271 272 277 284 285 287 288 289 291 292 294 295 296 297 299 300 302 303 304 306 307 309 310 311 312 313 315 316 318 319 320 322 323 325 326 327 328 331 333 334 336 337 338 340 341 343 344 345 346 348 349 351 352 353 355 356 358 359 360 361 362 364 365 367 368 369 371 372 374 375 376 377 380 381 382 383 384 385 386 387 388 389 390 391 392 393 394 395 396 397 398 399 400 401 402 403 404 405 406 407 408 409 410 411 412 413 414 415 416 417 418 419 420 421 422 423 424 425 426 427 428 429 430 431 432 433 434 435 436 437 438 439 440 441 442 443 444 445 446 447 448 449 450 451 452 453 454 455 456 457 458 459 460 461 462 463 464 465 466 467 469 470 471 472 473 474 475 476 477 479 
p cnf 1644 2038
a 246 250 241 231 68 72 56 64 48 60 40 52 32 44 335 339 265 317 321 324 242 216 226 236 332 262 259 275 269 276 373 363 357 370 366 347 342 354 350 20 36 4 8 24 16 1 28 12 270 5 254 468 21 2 9 17 253 280 191 183 167 171 179 175 151 155 159 163 308 314 286 290 283 301 305 293 298 199 203 187 195 207 225 215 211 221 235 104 96 100 92 88 84 76 80 112 108 122 135 129 132 116 139 125 119 147 143 0
e 3 6 7 10 11 14 15 18 19 22 23 26 27 30 31 34 35 38 39 42 43 46 47 50 51 54 55 58 59 62 63 66 67 70 71 74 75 78 79 82 83 86 87 90 91 94 95 98 99 102 103 106 107 110 111 114 115 117 118 120 121 123 124 127 128 130 131 133 134 137 138 141 142 145 146 149 150 153 154 157 158 161 162 165 166 169 170 173 174 177 178 181 182 185 186 189 190 193 194 197 198 201 202 205 206 209 210 213 214 219 220 223 224 229 230 233 234 239 240 244 245 248 249 251 252 257 258 260 261 263 264 267 268 273 274 278 279 281 282 330 379 478 13 25 29 33 37 41 45 49 53 57 61 65 69 73 77 81 85 89 93 97 101 105 109 113 126 136 140 144 148 152 156 160 164 168 172 176 180 184 188 192 196 200 204 208 212 217 218 222 227 228 232 237 238 243 247 255 256 271 272 277 284 285 287 288 289 291 292 294 295 296 297 299 300 302 303 304 306 307 309 310 311 312 313 315 316 318 319 320 322 323 325 326 327 328 331 333 334 336 337 338 340 341 343 344 345 346 348 349 351 352 353 355 356 358 359 360 361 362 364 365 367 368 369 371 372 374 375 376 377 380 381 382 383 384 385 386 387 388 389 390 391 392 393 394 395 396 397 398 399 400 401 402 403 404 405 406 407 408 409 410 411 412 413 414 415 416 417 418 419 420 421 422 423 424 425 426 427 428 429 430 431 432 433 434 435 436 437 438 439 440 441 442 443 444 445 446 447 448 449 450 451 452 453 454 455 456 457 458 459 460 461 462 463 464 465 466 467 469 470 471 472 473 474 475 476 477 479 1434 1435 1436 1437 1438 1439 1440 1441 1442 1443 1444 1445 1446 1447 1448 1449 1450 1451 1452 1453 1454 1455 1456 1457 1458 1459 1460 1461 1462 1463 1464 1465 1466 1467 1468 1469 1470 1471 1472 1473 1474 1475 1476 1477 1478 1479 1480 1481 1482 1483 1484 1485 1486 1487 1488 1489 1490 1491 1492 1493 1494 1495 1496 1497 1498 1499 1500 1501 1502 1503 1504 1505 1506 1507 1508 1509 1510 1511 1512 1513 1514 1515 1516 1517 1518 1519 1520 1521 1522 1523 1524 1525 1526 1527 1528 1529 1530 1531 1532 1533 1534 1535 1536 1537 1538 1539 1540 1541 1542 1543 1544 1545 1546 1547 1548 1549 1550 1551 1552 1553 1554 1555 1556 1557 1558 1559 1560 1561 1562 1563 1564 1565 1566 1567 1568 1569 1570 1571 1572 1573 1574 1575 1576 1577 1578 1579 1580 1581 1582 1583 1584 1585 1586 1587 1588 1589 1590 1591 1592 1593 1594 1595 1596 1597 1598 1599 1600 1601 1602 1603 1604 1605 1606 1607 1608 1609 1610 1611 1612 1613 1614 1615 1616 1617 1618 1619 1620 1621 1622 1623 1624 1625 1626 1627 1628 1629 1630 1631 1632 1633 1634 1635 1636 1637 1638 1639 1640 1641 1642 1643 1644 0
d 329 250 241 235 225 215 0
d 266 468 262 2 9 259 0
d 378 280 275 269 265 253 0
1435 -13 0
-1435 13 0
1436 -25 0
-1436 25 0
1437 -29 0
-1437 29 0
1438 -33 0
-1438 33 0
1439 -37 0
-1439 37 0
1440 -41 0
-1440 41 0
1441 -45 0
-1441 45 0
1442 -49 0
-1442 49 0
1443 -53 0
-1443 53 0
1444 -57 0
-1444 57 0
1445 -61 0
-1445 61 0
1446 -65 0
-1446 65 0
1447 -69 0
-1447 69 0
1448 -73 0
-1448 73 0
1449 -77 0
-1449 77 0
1450 -81 0
-1450 81 0
1451 -85 0
-1451 85 0
1452 -89 0
-1452 89 0
1453 -93 0
-1453 93 0
1454 -97 0
-1454 97 0
1455 -101 0
-1455 101 0
1456 -105 0
-1456 105 0
1457 -109 0
-1457 109 0
1458 -113 0
-1458 113 0
1459 -126 0
-1459 126 0
1460 -136 0
-1460 136 0
1461 -140 0
-1461 140 0
1462 -144 0
-1462 144 0
1463 -148 0
-1463 148 0
1464 -152 0
-1464 152 0
1465 -156 0
-1465 156 0
1442 -160 0
-1442 160 0
1466 -164 0
-1466 164 0
1467 -168 0
-1467 168 0
1468 -172 0
-1468 172 0
1469 -176 0
-1469 176 0
1470 -180 0
-1470 180 0
1471 -184 0
-1471 184 0
1472 -188 0
-1472 188 0
1473 -192 0
-1473 192 0
1474 -196 0
-1474 196 0
1475 -200 0
-1475 200 0
1476 -204 0
-1476 204 0
1454 -208 0
-1454 208 0
1477 -212 0
-1477 212 0
1478 -217 0
-1478 217 0
1479 -218 0
-1479 218 0
1480 -222 0
-1480 222 0
1481 -227 0
-1481 227 0
1482 -228 0
-1482 228 0
1483 -232 0
-1483 232 0
1484 -237 0
-1484 237 0
1485 -238 0
-1485 238 0
1486 -243 0
-1486 243 0
1487 -247 0
-1487 247 0
1488 -255 0
-1488 255 0
1489 -256 0
-1489 256 0
1490 -271 0
-1490 271 0
1491 -272 0
-1491 272 0
1492 -277 0
-1492 277 0
1493 -284 0
-1493 284 0
1494 -285 0
-1494 285 0
1495 -287 0
-1495 287 0
1496 -288 0
-1496 288 0
-1497 -289 0
1497 289 0
1498 -291 0
-1498 291 0
1499 -292 0
-1499 292 0
1500 -294 0
-1500 294 0
1501 -295 0
-1501 295 0
-1502 -296 0
1502 296 0
-1503 -297 0
1503 297 0
1504 -299 0
-1504 299 0
1505 -300 0
-1505 300 0
1506 -302 0
-1506 302 0
1507 -303 0
-1507 303 0
-1508 -304 0
1508 304 0
1509 -306 0
-1509 306 0
1510 -307 0
-1510 307 0
1511 -309 0
-1511 309 0
1512 -310 0
-1512 310 0
-1513 -311 0
1513 311 0
-1514 -312 0
1514 312 0
-1515 -313 0
1515 313 0
1516 -315 0
-1516 315 0
1517 -316 0
-1517 316 0
1518 -318 0
-1518 318 0
1519 -319 0
-1519 319 0
-1520 -320 0
1520 320 0
1521 -322 0
-1521 322 0
1522 -323 0
-1522 323 0
1523 -325 0
-1523 325 0
1524 -326 0
-1524 326 0
-1525 -327 0
1525 327 0
-1526 -328 0
1526 328 0
-1527 -331 0
1527 331 0
1528 -333 0
-1528 333 0
1529 -334 0
-1529 334 0
1530 -336 0
-1530 336 0
1531 -337 0
-1531 337 0
-1532 -338 0
1532 338 0
1533 -340 0
-1533 340 0
1534 -341 0
-1534 341 0
1535 -343 0
-1535 343 0
1536 -344 0
-1536 344 0
-1537 -345 0
1537 345 0
-1538 -346 0
1538 346 0
1539 -348 0
-1539 348 0
1540 -349 0
-1540 349 0
1541 -351 0
-1541 351 0
1542 -352 0
-1542 352 0
-1543 -353 0
1543 353 0
1544 -355 0
-1544 355 0
1545 -356 0
-1545 356 0
1546 -358 0
-1546 358 0
1547 -359 0
-1547 359 0
-1548 -360 0
1548 360 0
-1549 -361 0
1549 361 0
-1551 -362 0
1551 362 0
1552 -364 0
-1552 364 0
1553 -365 0
-1553 365 0
1554 -367 0
-1554 367 0
1555 -368 0
-1555 368 0
-1556 -369 0
1556 369 0
1557 -371 0
-1557 371 0
1558 -372 0
-1558 372 0
1559 -374 0
-1559 374 0
1560 -375 0
-1560 375 0
-1561 -376 0
1561 376 0
-1562 -377 0
1562 377 0
-1563 -380 0
1563 380 0
-1564 -381 0
1564 381 0
1565 -382 0
-1565 382 0
1566 -383 0
-1566 383 0
1567 -384 0
-1567 384 0
1568 -385 0
-1568 385 0
-1569 -386 0
1569 386 0
1570 -387 0
-1570 387 0
1571 -388 0
-1571 388 0
1572 -389 0
-1572 389 0
1573 -390 0
-1573 390 0
-1574 -391 0
1574 391 0
-1575 -392 0
1575 392 0
1576 -393 0
-1576 393 0
1577 -394 0
-1577 394 0
1578 -395 0
-1578 395 0
1579 -396 0
-1579 396 0
-1580 -397 0
1580 397 0
1581 -398 0
-1581 398 0
1582 -399 0
-1582 399 0
1583 -400 0
-1583 400 0
1584 -401 0
-1584 401 0
-1585 -402 0
1585 402 0
-1586 -403 0
1586 403 0
-1587 -404 0
1587 404 0
1588 -405 0
-1588 405 0
1589 -406 0
-1589 406 0
1590 -407 0
-1590 407 0
1591 -408 0
-1591 408 0
-1592 -409 0
1592 409 0
1593 -410 0
-1593 410 0
1594 -411 0
-1594 411 0
1595 -412 0
-1595 412 0
1596 -413 0
-1596 413 0
-1597 -414 0
1597 414 0
-1598 -415 0
1598 415 0
1599 -416 0
-1599 416 0
1600 -417 0
-1600 417 0
1601 -418 0
-1601 418 0
1602 -419 0
-1602 419 0
-1603 -420 0
1603 420 0
1604 -421 0
-1604 421 0
1605 -422 0
-1605 422 0
1606 -423 0
-1606 423 0
1607 -424 0
-1607 424 0
-1608 -425 0
1608 425 0
-1609 -426 0
1609 426 0
-1610 -427 0
1610 427 0
-1611 -428 0
1611 428 0
1528 -429 0
-1528 429 0
1612 -430 0
-1612 430 0
1530 -431 0
-1530 431 0
1613 -432 0
-1613 432 0
-1614 -433 0
1614 433 0
1533 -434 0
-1533 434 0
1615 -435 0
-1615 435 0
1535 -436 0
-1535 436 0
1616 -437 0
-1616 437 0
-1617 -438 0
1617 438 0
-1618 -439 0
1618 439 0
1539 -440 0
-1539 440 0
1619 -441 0
-1619 441 0
1541 -442 0
-1541 442 0
1620 -443 0
-1620 443 0
-1621 -444 0
1621 444 0
1544 -445 0
-1544 445 0
1622 -446 0
-1622 446 0
1546 -447 0
-1546 447 0
1623 -448 0
-1623 448 0
-1624 -449 0
1624 449 0
-1625 -450 0
1625 450 0
-1626 -451 0
1626 451 0
1552 -452 0
-1552 452 0
1627 -453 0
-1627 453 0
1554 -454 0
-1554 454 0
1628 -455 0
-1628 455 0
-1629 -456 0
1629 456 0
1557 -457 0
-1557 457 0
1630 -458 0
-1630 458 0
1559 -459 0
-1559 459 0
1631 -460 0
-1631 460 0
-1632 -461 0
1632 461 0
-1633 -462 0
1633 462 0
1492 -463 0
-1492 463 0
1634 -464 0
-1634 464 0
1488 -465 0
-1488 465 0
1635 -466 0
-1635 466 0
-1636 -467 0
1636 467 0
1637 -469 0
-1637 469 0
1638 -470 0
-1638 470 0
1490 -471 0
-1490 471 0
1639 -472 0
-1639 472 0
-1640 -473 0
1640 473 0
-1641 -474 0
1641 474 0
-1642 -475 0
1642 475 0
-1643 -476 0
1643 476 0
-1644 -477 0
1644 477 0
1434 -479 0
-1434 479 0
479 0
-479 282 478 0
-282 279 -281 0
-279 274 -278 0
-274 268 -273 0
-268 264 -267 0
-264 261 -263 0
-261 258 -260 0
-258 252 -257 0
-252 249 -251 0
-249 245 -248 0
-245 240 -244 0
-240 234 -239 0
-234 230 -233 0
-230 224 -229 0
-224 220 -223 0
-220 214 -219 0
-214 210 -213 0
-210 206 -209 0
-206 202 -205 0
-202 198 -201 0
-198 194 -197 0
-194 190 -193 0
-190 186 -189 0
-186 182 -185 0
-182 178 -181 0
-178 174 -177 0
-174 170 -173 0
-170 166 -169 0
-166 162 -165 0
-162 158 -161 0
-158 154 -157 0
-154 150 -153 0
-150 146 -149 0
-146 142 -145 0
-142 138 -141 0
-138 134 -137 0
-134 131 -133 0
-131 128 -130 0
-128 124 -127 0
-124 121 -123 0
-121 118 -120 0
-118 115 -117 0
-115 111 -114 0
-111 107 -110 0
-107 103 -106 0
-103 99 -102 0
-99 95 -98 0
-95 91 -94 0
-91 87 -90 0
-87 83 -86 0
-83 79 -82 0
-79 75 -78 0
-75 71 -74 0
-71 67 -70 0
-67 63 -66 0
-63 59 -62 0
-59 55 -58 0
-55 51 -54 0
-51 47 -50 0
-47 43 -46 0
-43 39 -42 0
-39 35 -38 0
-35 31 -34 0
-31 27 -30 0
-27 23 -26 0
-23 19 -22 0
-19 15 -18 0
-15 11 -14 0
-11 7 -10 0
-7 -3 -6 0
1 -2 3 0
-1 2 3 0
4 -5 6 0
-4 5 6 0
8 -9 10 0
-8 9 10 0
12 13 14 0
-12 -13 14 0
-4 -8 13 0
-13 4 0
-13 8 0
16 -17 18 0
-16 17 18 0
20 -21 22 0
-20 21 22 0
24 25 26 0
-24 -25 26 0
-16 -20 25 0
-25 16 0
-25 20 0
28 29 30 0
-28 -29 30 0
-12 -24 29 0
-29 12 0
-29 24 0
32 33 34 0
-32 -33 34 0
-5 -8 33 0
-33 5 0
-33 8 0
36 37 38 0
-36 -37 38 0
-32 -24 37 0
-37 32 0
-37 24 0
40 41 42 0
-40 -41 42 0
-4 -9 41 0
-41 4 0
-41 9 0
44 45 46 0
-44 -45 46 0
-40 -24 45 0
-45 40 0
-45 24 0
48 49 50 0
-48 -49 50 0
-5 -9 49 0
-49 5 0
-49 9 0
52 53 54 0
-52 -53 54 0
-48 -24 53 0
-53 48 0
-53 24 0
56 57 58 0
-56 -57 58 0
-17 -20 57 0
-57 17 0
-57 20 0
60 61 62 0
-60 -61 62 0
-12 -56 61 0
-61 12 0
-61 56 0
64 65 66 0
-64 -65 66 0
-32 -56 65 0
-65 32 0
-65 56 0
68 69 70 0
-68 -69 70 0
-40 -56 69 0
-69 40 0
-69 56 0
72 73 74 0
-72 -73 74 0
-48 -56 73 0
-73 48 0
-73 56 0
76 77 78 0
-76 -77 78 0
-16 -21 77 0
-77 16 0
-77 21 0
80 81 82 0
-80 -81 82 0
-12 -76 81 0
-81 12 0
-81 76 0
84 85 86 0
-84 -85 86 0
-32 -76 85 0
-85 32 0
-85 76 0
88 89 90 0
-88 -89 90 0
-40 -76 89 0
-89 40 0
-89 76 0
92 93 94 0
-92 -93 94 0
-48 -76 93 0
-93 48 0
-93 76 0
96 97 98 0
-96 -97 98 0
-17 -21 97 0
-97 17 0
-97 21 0
100 101 102 0
-100 -101 102 0
-12 -96 101 0
-101 12 0
-101 96 0
104 105 106 0
-104 -105 106 0
-32 -96 105 0
-105 32 0
-105 96 0
108 109 110 0
-108 -109 110 0
-40 -96 109 0
-109 40 0
-109 96 0
112 113 114 0
-112 -113 114 0
-48 -96 113 0
-113 48 0
-113 96 0
116 -2 117 0
-116 2 117 0
119 -5 120 0
-119 5 120 0
122 -9 123 0
-122 9 123 0
125 126 127 0
-125 -126 127 0
-119 -122 126 0
-126 119 0
-126 122 0
129 -17 130 0
-129 17 130 0
132 -21 133 0
-132 21 133 0
135 136 137 0
-135 -136 137 0
-129 -132 136 0
-136 129 0
-136 132 0
139 140 141 0
-139 -140 141 0
-125 -135 140 0
-140 125 0
-140 135 0
143 144 145 0
-143 -144 145 0
-5 -122 144 0
-144 5 0
-144 122 0
147 148 149 0
-147 -148 149 0
-143 -135 148 0
-148 143 0
-148 135 0
151 152 153 0
-151 -152 153 0
-119 -9 152 0
-152 119 0
-152 9 0
155 156 157 0
-155 -156 157 0
-151 -135 156 0
-156 151 0
-156 135 0
159 160 161 0
-159 -160 161 0
-5 -9 160 0
-160 5 0
-160 9 0
163 164 165 0
-163 -164 165 0
-159 -135 164 0
-164 159 0
-164 135 0
167 168 169 0
-167 -168 169 0
-17 -132 168 0
-168 17 0
-168 132 0
171 172 173 0
-171 -172 173 0
-125 -167 172 0
-172 125 0
-172 167 0
175 176 177 0
-175 -176 177 0
-143 -167 176 0
-176 143 0
-176 167 0
179 180 181 0
-179 -180 181 0
-151 -167 180 0
-180 151 0
-180 167 0
183 184 185 0
-183 -184 185 0
-159 -167 184 0
-184 159 0
-184 167 0
187 188 189 0
-187 -188 189 0
-129 -21 188 0
-188 129 0
-188 21 0
191 192 193 0
-191 -192 193 0
-125 -187 192 0
-192 125 0
-192 187 0
195 196 197 0
-195 -196 197 0
-143 -187 196 0
-196 143 0
-196 187 0
199 200 201 0
-199 -200 201 0
-151 -187 200 0
-200 151 0
-200 187 0
203 204 205 0
-203 -204 205 0
-159 -187 204 0
-204 159 0
-204 187 0
207 208 209 0
-207 -208 209 0
-17 -21 208 0
-208 17 0
-208 21 0
211 212 213 0
-211 -212 213 0
-143 -207 212 0
-212 143 0
-212 207 0
215 218 219 0
-215 -218 219 0
-217 -211 218 0
-116 -216 217 0
-218 217 0
-218 211 0
-217 116 0
-217 216 0
221 222 223 0
-221 -222 223 0
-151 -207 222 0
-222 151 0
-222 207 0
225 228 229 0
-225 -228 229 0
-227 -221 228 0
-116 -226 227 0
-228 227 0
-228 221 0
-227 116 0
-227 226 0
231 232 233 0
-231 -232 233 0
-159 -207 232 0
-232 159 0
-232 207 0
235 238 239 0
-235 -238 239 0
-237 -231 238 0
-116 -236 237 0
-238 237 0
-238 231 0
-237 116 0
-237 236 0
241 243 244 0
-241 -243 244 0
-116 -242 243 0
-243 116 0
-243 242 0
246 247 248 0
-246 -247 248 0
-125 -207 247 0
-247 125 0
-247 207 0
250 246 251 0
-250 -246 251 0
253 256 257 0
-253 -256 257 0
-255 -211 256 0
-2 -254 255 0
-256 255 0
-256 211 0
-255 2 0
-255 254 0
259 207 260 0
-259 -207 260 0
262 119 263 0
-262 -119 263 0
265 266 267 0
-265 -266 267 0
269 272 273 0
-269 -272 273 0
-271 -231 272 0
-2 -270 271 0
-272 271 0
-272 231 0
-271 2 0
-271 270 0
275 277 278 0
-275 -277 278 0
-2 -276 277 0
-277 2 0
-277 276 0
280 246 281 0
-280 -246 281 0
-478 -381 477 0
-478 381 -477 0
-381 331 380 0
-331 313 330 0
-313 297 312 0
-297 289 296 0
-289 285 288 0
-285 284 0
-285 139 0
-284 116 0
-284 283 0
-288 287 0
-288 147 0
-287 116 0
-287 286 0
-296 292 295 0
-292 291 0
-292 155 0
-291 116 0
-291 290 0
-295 294 0
-295 163 0
-294 116 0
-294 293 0
-312 304 311 0
-304 300 303 0
-300 299 0
-300 171 0
-299 116 0
-299 298 0
-303 302 0
-303 175 0
-302 116 0
-302 301 0
-311 307 310 0
-307 306 0
-307 179 0
-306 116 0
-306 305 0
-310 309 0
-310 183 0
-309 116 0
-309 308 0
-330 328 329 0
-328 320 327 0
-320 316 319 0
-316 315 0
-316 191 0
-315 116 0
-315 314 0
-319 318 0
-319 195 0
-318 116 0
-318 317 0
-327 323 326 0
-323 322 0
-323 199 0
-322 116 0
-322 321 0
-326 325 0
-326 203 0
-325 116 0
-325 324 0
-380 362 379 0
-362 346 361 0
-346 338 345 0
-338 334 337 0
-334 333 0
-334 139 0
-333 2 0
-333 332 0
-337 336 0
-337 147 0
-336 2 0
-336 335 0
-345 341 344 0
-341 340 0
-341 155 0
-340 2 0
-340 339 0
-344 343 0
-344 163 0
-343 2 0
-343 342 0
-361 353 360 0
-353 349 352 0
-349 348 0
-349 171 0
-348 2 0
-348 347 0
-352 351 0
-352 175 0
-351 2 0
-351 350 0
-360 356 359 0
-356 355 0
-356 179 0
-355 2 0
-355 354 0
-359 358 0
-359 183 0
-358 2 0
-358 357 0
-379 377 378 0
-377 369 376 0
-369 365 368 0
-365 364 0
-365 191 0
-364 2 0
-364 363 0
-368 -367 0
-368 195 0
-2 -366 367 0
-376 372 375 0
-372 371 0
-372 199 0
-371 2 0
-371 370 0
-375 374 0
-375 203 0
-374 2 0
-374 373 0
-477 428 476 0
-428 404 427 0
-404 392 403 0
-392 386 391 0
-386 383 385 0
-383 382 0
-383 28 0
-382 1 0
-382 283 0
-385 384 0
-385 36 0
-384 1 0
-384 286 0
-391 388 390 0
-388 387 0
-388 44 0
-387 1 0
-387 290 0
-390 389 0
-390 52 0
-389 1 0
-389 293 0
-403 397 402 0
-397 394 396 0
-394 393 0
-394 60 0
-393 1 0
-393 298 0
-396 395 0
-396 64 0
-395 1 0
-395 301 0
-402 399 401 0
-399 398 0
-399 68 0
-398 1 0
-398 305 0
-401 400 0
-401 72 0
-400 1 0
-400 308 0
-427 415 426 0
-415 409 414 0
-409 406 408 0
-406 405 0
-406 80 0
-405 1 0
-405 314 0
-408 407 0
-408 84 0
-407 1 0
-407 317 0
-414 411 413 0
-411 410 0
-411 88 0
-410 1 0
-410 321 0
-413 412 0
-413 92 0
-412 1 0
-412 324 0
-426 420 425 0
-420 417 419 0
-417 416 0
-417 100 0
-416 1 0
-416 242 0
-419 418 0
-419 104 0
-418 1 0
-418 216 0
-425 422 424 0
-422 421 0
-422 108 0
-421 1 0
-421 226 0
-424 423 0
-424 112 0
-423 1 0
-423 236 0
-476 451 475 0
-451 439 450 0
-439 433 438 0
-433 430 432 0
-430 429 0
-430 28 0
-429 2 0
-429 332 0
-432 431 0
-432 36 0
-431 2 0
-431 335 0
-438 435 437 0
-435 434 0
-435 44 0
-434 2 0
-434 339 0
-437 436 0
-437 52 0
-436 2 0
-436 342 0
-450 444 449 0
-444 441 443 0
-441 440 0
-441 60 0
-440 2 0
-440 347 0
-443 442 0
-443 64 0
-442 2 0
-442 350 0
-449 446 448 0
-446 445 0
-446 68 0
-445 2 0
-445 354 0
-448 447 0
-448 72 0
-447 2 0
-447 357 0
-475 462 474 0
-462 456 461 0
-456 453 455 0
-453 452 0
-453 80 0
-452 2 0
-452 363 0
-455 454 0
-455 84 0
-454 2 0
-454 366 0
-461 458 460 0
-458 457 0
-458 88 0
-457 2 0
-457 370 0
-460 459 0
-460 92 0
-459 2 0
-459 373 0
-474 467 473 0
-467 464 466 0
-464 463 0
-464 100 0
-463 2 0
-463 276 0
-466 465 0
-466 104 0
-465 2 0
-465 254 0
-473 470 472 0
-470 469 0
-470 108 0
-469 2 0
-469 468 0
-472 471 0
-472 112 0
-471 2 0
-471 270 0
-331 380 381 0
331 -380 381 0
-331 -380 381 0
-313 330 331 0
313 -330 331 0
-313 -330 331 0
-297 312 313 0
297 -312 313 0
-297 -312 313 0
-289 296 297 0
289 -296 297 0
-289 -296 297 0
-285 288 289 0
285 -288 289 0
-285 -288 289 0
-284 -139 285 0
-116 -283 284 0
-287 -147 288 0
-116 -286 287 0
-292 295 296 0
292 -295 296 0
-292 -295 296 0
-291 -155 292 0
-116 -290 291 0
-294 -163 295 0
-116 -293 294 0
-304 311 312 0
304 -311 312 0
-304 -311 312 0
-300 303 304 0
300 -303 304 0
-300 -303 304 0
-299 -171 300 0
-116 -298 299 0
-302 -175 303 0
-116 -301 302 0
-307 310 311 0
307 -310 311 0
-307 -310 311 0
-306 -179 307 0
-116 -305 306 0
-309 -183 310 0
-116 -308 309 0
-328 329 330 0
328 -329 330 0
-328 -329 330 0
-320 327 328 0
320 -327 328 0
-320 -327 328 0
-316 319 320 0
316 -319 320 0
-316 -319 320 0
-315 -191 316 0
-116 -314 315 0
-318 -195 319 0
-116 -317 318 0
-323 326 327 0
323 -326 327 0
-323 -326 327 0
-322 -199 323 0
-116 -321 322 0
-325 -203 326 0
-116 -324 325 0
-362 379 380 0
362 -379 380 0
-362 -379 380 0
-346 361 362 0
346 -361 362 0
-346 -361 362 0
-338 345 346 0
338 -345 346 0
-338 -345 346 0
-334 337 338 0
334 -337 338 0
-334 -337 338 0
-333 -139 334 0
-2 -332 333 0
-336 -147 337 0
-2 -335 336 0
-341 344 345 0
341 -344 345 0
-341 -344 345 0
-340 -155 341 0
-2 -339 340 0
-343 -163 344 0
-2 -342 343 0
-353 360 361 0
353 -360 361 0
-353 -360 361 0
-349 352 353 0
349 -352 353 0
-349 -352 353 0
-348 -171 349 0
-2 -347 348 0
-351 -175 352 0
-2 -350 351 0
-356 359 360 0
356 -359 360 0
-356 -359 360 0
-355 -179 356 0
-2 -354 355 0
-358 -183 359 0
-2 -357 358 0
-377 378 379 0
377 -378 379 0
-377 -378 379 0
-369 376 377 0
369 -376 377 0
-369 -376 377 0
-365 368 369 0
365 -368 369 0
-365 -368 369 0
-364 -191 365 0
-2 -363 364 0
367 -195 368 0
-367 2 0
-367 366 0
-372 375 376 0
372 -375 376 0
-372 -375 376 0
-371 -199 372 0
-2 -370 371 0
-374 -203 375 0
-2 -373 374 0
-428 476 477 0
428 -476 477 0
-428 -476 477 0
-404 427 428 0
404 -427 428 0
-404 -427 428 0
-392 403 404 0
392 -403 404 0
-392 -403 404 0
-386 391 392 0
386 -391 392 0
-386 -391 392 0
-383 385 386 0
383 -385 386 0
-383 -385 386 0
-382 -28 383 0
-1 -283 382 0
-384 -36 385 0
-1 -286 384 0
-388 390 391 0
388 -390 391 0
-388 -390 391 0
-387 -44 388 0
-1 -290 387 0
-389 -52 390 0
-1 -293 389 0
-397 402 403 0
397 -402 403 0
-397 -402 403 0
-394 396 397 0
394 -396 397 0
-394 -396 397 0
-393 -60 394 0
-1 -298 393 0
-395 -64 396 0
-1 -301 395 0
-399 401 402 0
399 -401 402 0
-399 -401 402 0
-398 -68 399 0
-1 -305 398 0
-400 -72 401 0
-1 -308 400 0
-415 426 427 0
415 -426 427 0
-415 -426 427 0
-409 414 415 0
409 -414 415 0
-409 -414 415 0
-406 408 409 0
406 -408 409 0
-406 -408 409 0
-405 -80 406 0
-1 -314 405 0
-407 -84 408 0
-1 -317 407 0
-411 413 414 0
411 -413 414 0
-411 -413 414 0
-410 -88 411 0
-1 -321 410 0
-412 -92 413 0
-1 -324 412 0
-420 425 426 0
420 -425 426 0
-420 -425 426 0
-417 419 420 0
417 -419 420 0
-417 -419 420 0
-416 -100 417 0
-1 -242 416 0
-418 -104 419 0
-1 -216 418 0
-422 424 425 0
422 -424 425 0
-422 -424 425 0
-421 -108 422 0
-1 -226 421 0
-423 -112 424 0
-1 -236 423 0
-451 475 476 0
451 -475 476 0
-451 -475 476 0
-439 450 451 0
439 -450 451 0
-439 -450 451 0
-433 438 439 0
433 -438 439 0
-433 -438 439 0
-430 432 433 0
430 -432 433 0
-430 -432 433 0
-429 -28 430 0
-2 -332 429 0
-431 -36 432 0
-2 -335 431 0
-435 437 438 0
435 -437 438 0
-435 -437 438 0
-434 -44 435 0
-2 -339 434 0
-436 -52 437 0
-2 -342 436 0
-444 449 450 0
444 -449 450 0
-444 -449 450 0
-441 443 444 0
441 -443 444 0
-441 -443 444 0
-440 -60 441 0
-2 -347 440 0
-442 -64 443 0
-2 -350 442 0
-446 448 449 0
446 -448 449 0
-446 -448 449 0
-445 -68 446 0
-2 -354 445 0
-447 -72 448 0
-2 -357 447 0
-462 474 475 0
462 -474 475 0
-462 -474 475 0
-456 461 462 0
456 -461 462 0
-456 -461 462 0
-453 455 456 0
453 -455 456 0
-453 -455 456 0
-452 -80 453 0
-2 -363 452 0
-454 -84 455 0
-2 -366 454 0
-458 460 461 0
458 -460 461 0
-458 -460 461 0
-457 -88 458 0
-2 -370 457 0
-459 -92 460 0
-2 -373 459 0
-467 473 474 0
467 -473 474 0
-467 -473 474 0
-464 466 467 0
464 -466 467 0
-464 -466 467 0
-463 -100 464 0
-2 -276 463 0
-465 -104 466 0
-2 -254 465 0
-470 472 473 0
470 -472 473 0
-470 -472 473 0
-469 -108 470 0
-2 -468 469 0
-471 -112 472 0
-2 -270 471 0
1434 0
4 -1435 0
8 -1435 0
-4 -8 1435 0
20 -1436 0
16 -1436 0
-20 -16 1436 0
24 -1437 0
12 -1437 0
-24 -12 1437 0
8 -1438 0
5 -1438 0
-8 -5 1438 0
32 -1439 0
24 -1439 0
-32 -24 1439 0
4 -1440 0
9 -1440 0
-4 -9 1440 0
40 -1441 0
24 -1441 0
-40 -24 1441 0
5 -1442 0
9 -1442 0
-5 -9 1442 0
48 -1443 0
24 -1443 0
-48 -24 1443 0
20 -1444 0
17 -1444 0
-20 -17 1444 0
56 -1445 0
12 -1445 0
-56 -12 1445 0
56 -1446 0
32 -1446 0
-56 -32 1446 0
56 -1447 0
40 -1447 0
-56 -40 1447 0
56 -1448 0
48 -1448 0
-56 -48 1448 0
16 -1449 0
21 -1449 0
-16 -21 1449 0
12 -1450 0
76 -1450 0
-12 -76 1450 0
32 -1451 0
76 -1451 0
-32 -76 1451 0
40 -1452 0
76 -1452 0
-40 -76 1452 0
48 -1453 0
76 -1453 0
-48 -76 1453 0
21 -1454 0
17 -1454 0
-21 -17 1454 0
12 -1455 0
96 -1455 0
-12 -96 1455 0
32 -1456 0
96 -1456 0
-32 -96 1456 0
40 -1457 0
96 -1457 0
-40 -96 1457 0
48 -1458 0
96 -1458 0
-48 -96 1458 0
122 -1459 0
119 -1459 0
-122 -119 1459 0
129 -1460 0
132 -1460 0
-129 -132 1460 0
135 -1461 0
125 -1461 0
-135 -125 1461 0
5 -1462 0
122 -1462 0
-5 -122 1462 0
135 -1463 0
143 -1463 0
-135 -143 1463 0
9 -1464 0
119 -1464 0
-9 -119 1464 0
151 -1465 0
135 -1465 0
-151 -135 1465 0
159 -1466 0
135 -1466 0
-159 -135 1466 0
17 -1467 0
132 -1467 0
-17 -132 1467 0
167 -1468 0
125 -1468 0
-167 -125 1468 0
167 -1469 0
143 -1469 0
-167 -143 1469 0
167 -1470 0
151 -1470 0
-167 -151 1470 0
167 -1471 0
159 -1471 0
-167 -159 1471 0
21 -1472 0
129 -1472 0
-21 -129 1472 0
187 -1473 0
125 -1473 0
-187 -125 1473 0
187 -1474 0
143 -1474 0
-187 -143 1474 0
151 -1475 0
187 -1475 0
-151 -187 1475 0
159 -1476 0
187 -1476 0
-159 -187 1476 0
207 -1477 0
143 -1477 0
-207 -143 1477 0
216 -1478 0
116 -1478 0
-216 -116 1478 0
211 -1479 0
217 -1479 0
-211 -217 1479 0
151 -1480 0
207 -1480 0
-151 -207 1480 0
226 -1481 0
116 -1481 0
-226 -116 1481 0
221 -1482 0
227 -1482 0
-221 -227 1482 0
159 -1483 0
207 -1483 0
-159 -207 1483 0
236 -1484 0
116 -1484 0
-236 -116 1484 0
231 -1485 0
237 -1485 0
-231 -237 1485 0
242 -1486 0
116 -1486 0
-242 -116 1486 0
207 -1487 0
125 -1487 0
-207 -125 1487 0
254 -1488 0
2 -1488 0
-254 -2 1488 0
211 -1489 0
255 -1489 0
-211 -255 1489 0
270 -1490 0
2 -1490 0
-270 -2 1490 0
231 -1491 0
271 -1491 0
-231 -271 1491 0
276 -1492 0
2 -1492 0
-276 -2 1492 0
283 -1493 0
116 -1493 0
-283 -116 1493 0
139 -1494 0
284 -1494 0
-139 -284 1494 0
286 -1495 0
116 -1495 0
-286 -116 1495 0
147 -1496 0
287 -1496 0
-147 -287 1496 0
-285 -1497 0
-288 -1497 0
285 288 1497 0
290 -1498 0
116 -1498 0
-290 -116 1498 0
155 -1499 0
291 -1499 0
-155 -291 1499 0
293 -1500 0
116 -1500 0
-293 -116 1500 0
163 -1501 0
294 -1501 0
-163 -294 1501 0
-292 -1502 0
-295 -1502 0
292 295 1502 0
-289 -1503 0
1502 -1503 0
289 -1502 1503 0
298 -1504 0
116 -1504 0
-298 -116 1504 0
171 -1505 0
299 -1505 0
-171 -299 1505 0
301 -1506 0
116 -1506 0
-301 -116 1506 0
175 -1507 0
302 -1507 0
-175 -302 1507 0
-300 -1508 0
-303 -1508 0
300 303 1508 0
305 -1509 0
116 -1509 0
-305 -116 1509 0
179 -1510 0
306 -1510 0
-179 -306 1510 0
308 -1511 0
116 -1511 0
-308 -116 1511 0
183 -1512 0
309 -1512 0
-183 -309 1512 0
-307 -1513 0
-310 -1513 0
307 310 1513 0
-304 -1514 0
-311 -1514 0
304 311 1514 0
-297 -1515 0
-312 -1515 0
297 312 1515 0
314 -1516 0
116 -1516 0
-314 -116 1516 0
191 -1517 0
315 -1517 0
-191 -315 1517 0
317 -1518 0
116 -1518 0
-317 -116 1518 0
195 -1519 0
318 -1519 0
-195 -318 1519 0
-316 -1520 0
-319 -1520 0
316 319 1520 0
321 -1521 0
116 -1521 0
-321 -116 1521 0
199 -1522 0
322 -1522 0
-199 -322 1522 0
324 -1523 0
116 -1523 0
-324 -116 1523 0
203 -1524 0
325 -1524 0
-203 -325 1524 0
-323 -1525 0
-326 -1525 0
323 326 1525 0
-320 -1526 0
-327 -1526 0
320 327 1526 0
-313 -1527 0
-330 -1527 0
313 330 1527 0
332 -1528 0
2 -1528 0
-332 -2 1528 0
139 -1529 0
333 -1529 0
-139 -333 1529 0
335 -1530 0
2 -1530 0
-335 -2 1530 0
147 -1531 0
336 -1531 0
-147 -336 1531 0
-334 -1532 0
-337 -1532 0
334 337 1532 0
339 -1533 0
2 -1533 0
-339 -2 1533 0
155 -1534 0
340 -1534 0
-155 -340 1534 0
342 -1535 0
2 -1535 0
-342 -2 1535 0
163 -1536 0
343 -1536 0
-163 -343 1536 0
-341 -1537 0
-344 -1537 0
341 344 1537 0
-338 -1538 0
-345 -1538 0
338 345 1538 0
347 -1539 0
2 -1539 0
-347 -2 1539 0
171 -1540 0
348 -1540 0
-171 -348 1540 0
350 -1541 0
2 -1541 0
-350 -2 1541 0
175 -1542 0
351 -1542 0
-175 -351 1542 0
-349 -1543 0
-352 -1543 0
349 352 1543 0
354 -1544 0
2 -1544 0
-354 -2 1544 0
179 -1545 0
355 -1545 0
-179 -355 1545 0
357 -1546 0
2 -1546 0
-357 -2 1546 0
183 -1547 0
358 -1547 0
-183 -358 1547 0
-356 -1548 0
-359 -1548 0
356 359 1548 0
-353 -1549 0
1548 -1549 0
353 -1548 1549 0
-346 -1550 0
-353 -1550 0
346 353 1550 0
-360 -1551 0
1550 -1551 0
360 -1550 1551 0
363 -1552 0
2 -1552 0
-363 -2 1552 0
191 -1553 0
364 -1553 0
-191 -364 1553 0
366 -1554 0
2 -1554 0
-366 -2 1554 0
195 -1555 0
-367 -1555 0
-195 367 1555 0
-365 -1556 0
-368 -1556 0
365 368 1556 0
370 -1557 0
2 -1557 0
-370 -2 1557 0
199 -1558 0
371 -1558 0
-199 -371 1558 0
373 -1559 0
2 -1559 0
-373 -2 1559 0
203 -1560 0
374 -1560 0
-203 -374 1560 0
-372 -1561 0
-375 -1561 0
372 375 1561 0
-369 -1562 0
1561 -1562 0
369 -1561 1562 0
-362 -1563 0
-379 -1563 0
362 379 1563 0
-331 -1564 0
-380 -1564 0
331 380 1564 0
1 -1565 0
283 -1565 0
-1 -283 1565 0
28 -1566 0
382 -1566 0
-28 -382 1566 0
1 -1567 0
286 -1567 0
-1 -286 1567 0
36 -1568 0
384 -1568 0
-36 -384 1568 0
-383 -1569 0
-385 -1569 0
383 385 1569 0
1 -1570 0
290 -1570 0
-1 -290 1570 0
44 -1571 0
387 -1571 0
-44 -387 1571 0
1 -1572 0
293 -1572 0
-1 -293 1572 0
52 -1573 0
389 -1573 0
-52 -389 1573 0
-388 -1574 0
-390 -1574 0
388 390 1574 0
-386 -1575 0
-391 -1575 0
386 391 1575 0
1 -1576 0
298 -1576 0
-1 -298 1576 0
60 -1577 0
393 -1577 0
-60 -393 1577 0
1 -1578 0
301 -1578 0
-1 -301 1578 0
64 -1579 0
395 -1579 0
-64 -395 1579 0
-394 -1580 0
-396 -1580 0
394 396 1580 0
1 -1581 0
305 -1581 0
-1 -305 1581 0
68 -1582 0
398 -1582 0
-68 -398 1582 0
1 -1583 0
308 -1583 0
-1 -308 1583 0
72 -1584 0
400 -1584 0
-72 -400 1584 0
-399 -1585 0
-401 -1585 0
399 401 1585 0
-397 -1586 0
-402 -1586 0
397 402 1586 0
-392 -1587 0
1586 -1587 0
392 -1586 1587 0
1 -1588 0
314 -1588 0
-1 -314 1588 0
80 -1589 0
405 -1589 0
-80 -405 1589 0
317 -1590 0
1 -1590 0
-317 -1 1590 0
84 -1591 0
407 -1591 0
-84 -407 1591 0
-406 -1592 0
-408 -1592 0
406 408 1592 0
321 -1593 0
1 -1593 0
-321 -1 1593 0
88 -1594 0
410 -1594 0
-88 -410 1594 0
324 -1595 0
1 -1595 0
-324 -1 1595 0
92 -1596 0
412 -1596 0
-92 -412 1596 0
-411 -1597 0
-413 -1597 0
411 413 1597 0
-409 -1598 0
-414 -1598 0
409 414 1598 0
242 -1599 0
1 -1599 0
-242 -1 1599 0
100 -1600 0
416 -1600 0
-100 -416 1600 0
216 -1601 0
1 -1601 0
-216 -1 1601 0
104 -1602 0
418 -1602 0
-104 -418 1602 0
-417 -1603 0
-419 -1603 0
417 419 1603 0
226 -1604 0
1 -1604 0
-226 -1 1604 0
108 -1605 0
421 -1605 0
-108 -421 1605 0
236 -1606 0
1 -1606 0
-236 -1 1606 0
112 -1607 0
423 -1607 0
-112 -423 1607 0
-422 -1608 0
-424 -1608 0
422 424 1608 0
-420 -1609 0
-425 -1609 0
420 425 1609 0
-415 -1610 0
-426 -1610 0
415 426 1610 0
-404 -1611 0
1610 -1611 0
404 -1610 1611 0
28 -1612 0
429 -1612 0
-28 -429 1612 0
36 -1613 0
431 -1613 0
-36 -431 1613 0
-430 -1614 0
-432 -1614 0
430 432 1614 0
44 -1615 0
434 -1615 0
-44 -434 1615 0
52 -1616 0
436 -1616 0
-52 -436 1616 0
-435 -1617 0
-437 -1617 0
435 437 1617 0
-433 -1618 0
-438 -1618 0
433 438 1618 0
60 -1619 0
440 -1619 0
-60 -440 1619 0
64 -1620 0
442 -1620 0
-64 -442 1620 0
-441 -1621 0
-443 -1621 0
441 443 1621 0
68 -1622 0
445 -1622 0
-68 -445 1622 0
72 -1623 0
447 -1623 0
-72 -447 1623 0
-446 -1624 0
-448 -1624 0
446 448 1624 0
-444 -1625 0
-449 -1625 0
444 449 1625 0
-439 -1626 0
1625 -1626 0
439 -1625 1626 0
80 -1627 0
452 -1627 0
-80 -452 1627 0
84 -1628 0
454 -1628 0
-84 -454 1628 0
-453 -1629 0
-455 -1629 0
453 455 1629 0
88 -1630 0
457 -1630 0
-88 -457 1630 0
92 -1631 0
459 -1631 0
-92 -459 1631 0
-458 -1632 0
-460 -1632 0
458 460 1632 0
-456 -1633 0
-461 -1633 0
456 461 1633 0
100 -1634 0
463 -1634 0
-100 -463 1634 0
104 -1635 0
465 -1635 0
-104 -465 1635 0
-464 -1636 0
-466 -1636 0
464 466 1636 0
468 -1637 0
2 -1637 0
-468 -2 1637 0
108 -1638 0
469 -1638 0
-108 -469 1638 0
112 -1639 0
471 -1639 0
-112 -471 1639 0
-470 -1640 0
-472 -1640 0
470 472 1640 0
-467 -1641 0
-473 -1641 0
467 473 1641 0
-462 -1642 0
-474 -1642 0
462 474 1642 0
-451 -1643 0
1642 -1643 0
451 -1642 1643 0
-428 -1644 0
-476 -1644 0
428 476 1644 0
